spring_18/ind_study/IWLS18/exps/ets18_exps/tianka_ckt/exp_2/it_9/tianka.cnf
p cnf 170 528
-4 -1 -2 0
4 1 -2 0
4 -1 2 0
-4 1 2 0
-5 2 3 0
5 -2 0
5 -3 0
-6 -3 -3 0
6 3 0
6 3 0
7 -5 -3 0
-7 5 0
-7 3 0
-8 4 7 0
8 -4 0
8 -7 0
-9 -7 -6 0
9 7 -6 0
9 -7 6 0
-9 7 6 0
10 -8 -9 0
-10 8 0
-10 9 0
1 -163 11 0
1 163 -11 0
-1 -164 11 0
-1 164 -11 0
1 -165 12 0
1 165 -12 0
-1 -166 12 0
-1 166 -12 0
1 -167 13 0
1 167 -13 0
-1 -168 13 0
-1 168 -13 0
1 -169 14 0
1 169 -14 0
-1 -170 14 0
-1 170 -14 0
2 -11 15 0
2 11 -15 0
-2 -12 15 0
-2 12 -15 0
2 -13 16 0
2 13 -16 0
-2 -14 16 0
-2 14 -16 0
3 -15 17 0
3 15 -17 0
-3 -16 17 0
-3 16 -17 0
-18 -10 -17 0
18 10 -17 0
18 -10 17 0
-18 10 17 0
-22 -19 -20 0
22 19 -20 0
22 -19 20 0
-22 19 20 0
-23 20 21 0
23 -20 0
23 -21 0
-24 -21 -21 0
24 21 0
24 21 0
25 -23 -21 0
-25 23 0
-25 21 0
-26 22 25 0
26 -22 0
26 -25 0
-27 -25 -24 0
27 25 -24 0
27 -25 24 0
-27 25 24 0
28 -26 -27 0
-28 26 0
-28 27 0
19 -163 29 0
19 163 -29 0
-19 -164 29 0
-19 164 -29 0
19 -165 30 0
19 165 -30 0
-19 -166 30 0
-19 166 -30 0
19 -167 31 0
19 167 -31 0
-19 -168 31 0
-19 168 -31 0
19 -169 32 0
19 169 -32 0
-19 -170 32 0
-19 170 -32 0
20 -29 33 0
20 29 -33 0
-20 -30 33 0
-20 30 -33 0
20 -31 34 0
20 31 -34 0
-20 -32 34 0
-20 32 -34 0
21 -33 35 0
21 33 -35 0
-21 -34 35 0
-21 34 -35 0
-36 -28 -35 0
36 28 -35 0
36 -28 35 0
-36 28 35 0
-40 -37 -38 0
40 37 -38 0
40 -37 38 0
-40 37 38 0
-41 38 39 0
41 -38 0
41 -39 0
-42 -39 -39 0
42 39 0
42 39 0
43 -41 -39 0
-43 41 0
-43 39 0
-44 40 43 0
44 -40 0
44 -43 0
-45 -43 -42 0
45 43 -42 0
45 -43 42 0
-45 43 42 0
46 -44 -45 0
-46 44 0
-46 45 0
37 -163 47 0
37 163 -47 0
-37 -164 47 0
-37 164 -47 0
37 -165 48 0
37 165 -48 0
-37 -166 48 0
-37 166 -48 0
37 -167 49 0
37 167 -49 0
-37 -168 49 0
-37 168 -49 0
37 -169 50 0
37 169 -50 0
-37 -170 50 0
-37 170 -50 0
38 -47 51 0
38 47 -51 0
-38 -48 51 0
-38 48 -51 0
38 -49 52 0
38 49 -52 0
-38 -50 52 0
-38 50 -52 0
39 -51 53 0
39 51 -53 0
-39 -52 53 0
-39 52 -53 0
-54 -46 -53 0
54 46 -53 0
54 -46 53 0
-54 46 53 0
-58 -55 -56 0
58 55 -56 0
58 -55 56 0
-58 55 56 0
-59 56 57 0
59 -56 0
59 -57 0
-60 -57 -57 0
60 57 0
60 57 0
61 -59 -57 0
-61 59 0
-61 57 0
-62 58 61 0
62 -58 0
62 -61 0
-63 -61 -60 0
63 61 -60 0
63 -61 60 0
-63 61 60 0
64 -62 -63 0
-64 62 0
-64 63 0
55 -163 65 0
55 163 -65 0
-55 -164 65 0
-55 164 -65 0
55 -165 66 0
55 165 -66 0
-55 -166 66 0
-55 166 -66 0
55 -167 67 0
55 167 -67 0
-55 -168 67 0
-55 168 -67 0
55 -169 68 0
55 169 -68 0
-55 -170 68 0
-55 170 -68 0
56 -65 69 0
56 65 -69 0
-56 -66 69 0
-56 66 -69 0
56 -67 70 0
56 67 -70 0
-56 -68 70 0
-56 68 -70 0
57 -69 71 0
57 69 -71 0
-57 -70 71 0
-57 70 -71 0
-72 -64 -71 0
72 64 -71 0
72 -64 71 0
-72 64 71 0
-76 -73 -74 0
76 73 -74 0
76 -73 74 0
-76 73 74 0
-77 74 75 0
77 -74 0
77 -75 0
-78 -75 -75 0
78 75 0
78 75 0
79 -77 -75 0
-79 77 0
-79 75 0
-80 76 79 0
80 -76 0
80 -79 0
-81 -79 -78 0
81 79 -78 0
81 -79 78 0
-81 79 78 0
82 -80 -81 0
-82 80 0
-82 81 0
73 -163 83 0
73 163 -83 0
-73 -164 83 0
-73 164 -83 0
73 -165 84 0
73 165 -84 0
-73 -166 84 0
-73 166 -84 0
73 -167 85 0
73 167 -85 0
-73 -168 85 0
-73 168 -85 0
73 -169 86 0
73 169 -86 0
-73 -170 86 0
-73 170 -86 0
74 -83 87 0
74 83 -87 0
-74 -84 87 0
-74 84 -87 0
74 -85 88 0
74 85 -88 0
-74 -86 88 0
-74 86 -88 0
75 -87 89 0
75 87 -89 0
-75 -88 89 0
-75 88 -89 0
-90 -82 -89 0
90 82 -89 0
90 -82 89 0
-90 82 89 0
-94 -91 -92 0
94 91 -92 0
94 -91 92 0
-94 91 92 0
-95 92 93 0
95 -92 0
95 -93 0
-96 -93 -93 0
96 93 0
96 93 0
97 -95 -93 0
-97 95 0
-97 93 0
-98 94 97 0
98 -94 0
98 -97 0
-99 -97 -96 0
99 97 -96 0
99 -97 96 0
-99 97 96 0
100 -98 -99 0
-100 98 0
-100 99 0
91 -163 101 0
91 163 -101 0
-91 -164 101 0
-91 164 -101 0
91 -165 102 0
91 165 -102 0
-91 -166 102 0
-91 166 -102 0
91 -167 103 0
91 167 -103 0
-91 -168 103 0
-91 168 -103 0
91 -169 104 0
91 169 -104 0
-91 -170 104 0
-91 170 -104 0
92 -101 105 0
92 101 -105 0
-92 -102 105 0
-92 102 -105 0
92 -103 106 0
92 103 -106 0
-92 -104 106 0
-92 104 -106 0
93 -105 107 0
93 105 -107 0
-93 -106 107 0
-93 106 -107 0
-108 -100 -107 0
108 100 -107 0
108 -100 107 0
-108 100 107 0
-112 -109 -110 0
112 109 -110 0
112 -109 110 0
-112 109 110 0
-113 110 111 0
113 -110 0
113 -111 0
-114 -111 -111 0
114 111 0
114 111 0
115 -113 -111 0
-115 113 0
-115 111 0
-116 112 115 0
116 -112 0
116 -115 0
-117 -115 -114 0
117 115 -114 0
117 -115 114 0
-117 115 114 0
118 -116 -117 0
-118 116 0
-118 117 0
109 -163 119 0
109 163 -119 0
-109 -164 119 0
-109 164 -119 0
109 -165 120 0
109 165 -120 0
-109 -166 120 0
-109 166 -120 0
109 -167 121 0
109 167 -121 0
-109 -168 121 0
-109 168 -121 0
109 -169 122 0
109 169 -122 0
-109 -170 122 0
-109 170 -122 0
110 -119 123 0
110 119 -123 0
-110 -120 123 0
-110 120 -123 0
110 -121 124 0
110 121 -124 0
-110 -122 124 0
-110 122 -124 0
111 -123 125 0
111 123 -125 0
-111 -124 125 0
-111 124 -125 0
-126 -118 -125 0
126 118 -125 0
126 -118 125 0
-126 118 125 0
-130 -127 -128 0
130 127 -128 0
130 -127 128 0
-130 127 128 0
-131 128 129 0
131 -128 0
131 -129 0
-132 -129 -129 0
132 129 0
132 129 0
133 -131 -129 0
-133 131 0
-133 129 0
-134 130 133 0
134 -130 0
134 -133 0
-135 -133 -132 0
135 133 -132 0
135 -133 132 0
-135 133 132 0
136 -134 -135 0
-136 134 0
-136 135 0
127 -163 137 0
127 163 -137 0
-127 -164 137 0
-127 164 -137 0
127 -165 138 0
127 165 -138 0
-127 -166 138 0
-127 166 -138 0
127 -167 139 0
127 167 -139 0
-127 -168 139 0
-127 168 -139 0
127 -169 140 0
127 169 -140 0
-127 -170 140 0
-127 170 -140 0
128 -137 141 0
128 137 -141 0
-128 -138 141 0
-128 138 -141 0
128 -139 142 0
128 139 -142 0
-128 -140 142 0
-128 140 -142 0
129 -141 143 0
129 141 -143 0
-129 -142 143 0
-129 142 -143 0
-144 -136 -143 0
144 136 -143 0
144 -136 143 0
-144 136 143 0
-148 -145 -146 0
148 145 -146 0
148 -145 146 0
-148 145 146 0
-149 146 147 0
149 -146 0
149 -147 0
-150 -147 -147 0
150 147 0
150 147 0
151 -149 -147 0
-151 149 0
-151 147 0
-152 148 151 0
152 -148 0
152 -151 0
-153 -151 -150 0
153 151 -150 0
153 -151 150 0
-153 151 150 0
154 -152 -153 0
-154 152 0
-154 153 0
145 -163 155 0
145 163 -155 0
-145 -164 155 0
-145 164 -155 0
145 -165 156 0
145 165 -156 0
-145 -166 156 0
-145 166 -156 0
145 -167 157 0
145 167 -157 0
-145 -168 157 0
-145 168 -157 0
145 -169 158 0
145 169 -158 0
-145 -170 158 0
-145 170 -158 0
146 -155 159 0
146 155 -159 0
-146 -156 159 0
-146 156 -159 0
146 -157 160 0
146 157 -160 0
-146 -158 160 0
-146 158 -160 0
147 -159 161 0
147 159 -161 0
-147 -160 161 0
-147 160 -161 0
-162 -154 -161 0
162 154 -161 0
162 -154 161 0
-162 154 161 0
18 0
-36 0
-54 0
-72 0
-90 0
-108 0
-126 0
-144 0
-162 0
-19 0
-20 0
21 0
-37 0
-38 0
-39 0
-55 0
56 0
-57 0
-73 0
74 0
75 0
91 0
-92 0
-93 0
109 0
110 0
-111 0
127 0
128 0
129 0
145 0
-146 0
147 0
